&CONTROL
   calculation      = 'relax'
   restart_mode     = 'from_scratch'
   tprnfor          = .true.
   etot_conv_thr    = 1e-05
   forc_conv_thr    = 0.0001
/
&SYSTEM
   ecutwfc          = 60
   ecutrho          = 480
   occupations      = 'smearing'
   degauss          = 0.01
   smearing         = 'cold'
   input_dft        = 'rpbe'
   vdw_corr         = 'dft-d3'
   ntyp             = 3
   nat              = 120
   ibrav            = 0
/
&ELECTRONS
   conv_thr         = 1e-08
   mixing_mode      = 'local-TF'
   mixing_beta      = 0.35
   diagonalization  = 'david'
   startingwfc      = 'random'
/
&IONS
   ion_dynamics     = 'bfgs'
   bfgs_ndim        = 6
/
&CELL
/
&FCP
/
&RISM
/
ATOMIC_SPECIES
Ti 47.867 Ti.pz-vbc.UPF
Ni 58.6934 Ni.pz-vbc.UPF
O 15.999 O.pz-vbc.UPF

K_POINTS gamma

CELL_PARAMETERS angstrom
10.05713344000000 0.00000000000000 0.00000000000000
-5.02856672000000 8.70973304828998 0.00000000000000
0.00000000000000 0.00000000000000 53.28339016735674

ATOMIC_POSITIONS angstrom
Ti 0.0000000000 0.0000000000 21.7530107451   0 0 0
Ti 0.0000000000 0.0000000000 31.5303794222  
Ti 2.5142833600 1.4516221747 26.3282995585  
Ti 2.5142833600 1.4516221747 22.3798017956   0 0 0
Ti 0.0000000000 2.9032443494 30.9035883718  
Ti 0.0000000000 2.9032443494 26.9550906089  
Ni 0.0000000000 0.0000000000 24.5752888133   0 0 0
Ni 0.0000000000 0.0000000000 28.7081013540  
Ni 2.5142833600 1.4516221747 29.1505776267  
Ni 2.5142833600 1.4516221747 33.2833901674  
Ni 0.0000000000 2.9032443494 20.0000000000   0 0 0
Ni 0.0000000000 2.9032443494 24.1328125407   0 0 0
O -0.7223867727 1.3665138715 30.1092048581  
O 3.2366701327 2.9883526527 23.1741853092   0 0 0
O 1.6920410191 3.0460042919 30.1092048581  
O 0.8222423409 1.3088622323 23.1741853092   0 0 0
O -0.9696542463 4.2972148850 30.1092048581  
O 3.4839376063 0.0576516392 23.1741853092   0 0 0
O 1.7918965873 2.8181360462 20.9586272315   0 0 0
O 3.2366701327 0.0851083033 27.7494741226  
O 1.6920410191 0.1427599425 20.9586272315   0 0 0
O 3.3365257009 2.7604844070 27.7494741226  
O 4.0589124737 1.3939705355 20.9586272315   0 0 0
O 0.9696542463 1.5092738139 27.7494741226  
O -0.7223867727 4.2697582209 25.5339160448   0 0 0
O 0.7223867727 1.5367304780 32.3247629359  
O -0.8222423409 1.5943821172 25.5339160448   0 0 0
O 0.8222423409 4.2121065817 32.3247629359  
O 1.5446291137 2.8455927102 25.5339160448   0 0 0
O -1.5446291137 2.9608959886 32.3247629359  
Ti -2.5142833600 4.3548665241 21.7530107451   0 0 0
Ti -2.5142833600 4.3548665241 31.5303794222  
Ti 0.0000000000 5.8064886989 26.3282995585  
Ti 0.0000000000 5.8064886989 22.3798017956   0 0 0
Ti -2.5142833600 7.2581108736 30.9035883718  
Ti -2.5142833600 7.2581108736 26.9550906089  
Ni -2.5142833600 4.3548665241 24.5752888133   0 0 0
Ni -2.5142833600 4.3548665241 28.7081013540  
Ni 0.0000000000 5.8064886989 29.1505776267  
Ni 0.0000000000 5.8064886989 33.2833901674  
Ni -2.5142833600 7.2581108736 20.0000000000   0 0 0
Ni -2.5142833600 7.2581108736 24.1328125407   0 0 0
O -3.2366701327 5.7213803956 30.1092048581  
O 0.7223867727 7.3432191768 23.1741853092   0 0 0
O -0.8222423409 7.4008708160 30.1092048581  
O -1.6920410191 5.6637287564 23.1741853092   0 0 0
O -3.4839376063 8.6520814091 30.1092048581  
O 0.9696542463 4.4125181633 23.1741853092   0 0 0
O -0.7223867727 7.1730025703 20.9586272315   0 0 0
O 0.7223867727 4.4399748274 27.7494741226  
O -0.8222423409 4.4976264666 20.9586272315   0 0 0
O 0.8222423409 7.1153509311 27.7494741226  
O 1.5446291137 5.7488370597 20.9586272315   0 0 0
O -1.5446291137 5.8641403380 27.7494741226  
O -3.2366701327 8.6246247450 25.5339160448   0 0 0
O -1.7918965873 5.8915970021 32.3247629359  
O -3.3365257009 5.9492486413 25.5339160448   0 0 0
O -1.6920410191 8.5669731058 32.3247629359  
O -0.9696542463 7.2004592344 25.5339160448   0 0 0
O -4.0589124737 7.3157625128 32.3247629359  
Ti 5.0285667200 0.0000000000 21.7530107451   0 0 0
Ti 5.0285667200 0.0000000000 31.5303794222  
Ti 7.5428500800 1.4516221747 26.3282995585  
Ti 7.5428500800 1.4516221747 22.3798017956   0 0 0
Ti 5.0285667200 2.9032443494 30.9035883718  
Ti 5.0285667200 2.9032443494 26.9550906089  
Ni 5.0285667200 0.0000000000 24.5752888133   0 0 0
Ni 5.0285667200 0.0000000000 28.7081013540  
Ni 7.5428500800 1.4516221747 29.1505776267  
Ni 7.5428500800 1.4516221747 33.2833901674  
Ni 5.0285667200 2.9032443494 20.0000000000   0 0 0
Ni 5.0285667200 2.9032443494 24.1328125407   0 0 0
O 4.3061799473 1.3665138715 30.1092048581  
O 8.2652368527 2.9883526527 23.1741853092   0 0 0
O 6.7206077391 3.0460042919 30.1092048581  
O 5.8508090609 1.3088622323 23.1741853092   0 0 0
O 4.0589124737 4.2972148850 30.1092048581  
O 8.5125043263 0.0576516392 23.1741853092   0 0 0
O 6.8204633073 2.8181360462 20.9586272315   0 0 0
O 8.2652368527 0.0851083033 27.7494741226  
O 6.7206077391 0.1427599425 20.9586272315   0 0 0
O 8.3650924209 2.7604844070 27.7494741226  
O 9.0874791937 1.3939705355 20.9586272315   0 0 0
O 5.9982209663 1.5092738139 27.7494741226  
O 4.3061799473 4.2697582209 25.5339160448   0 0 0
O 5.7509534927 1.5367304780 32.3247629359  
O 4.2063243791 1.5943821172 25.5339160448   0 0 0
O 5.8508090609 4.2121065817 32.3247629359  
O 6.5731958337 2.8455927102 25.5339160448   0 0 0
O 3.4839376063 2.9608959886 32.3247629359  
Ti 2.5142833600 4.3548665241 21.7530107451   0 0 0
Ti 2.5142833600 4.3548665241 31.5303794222  
Ti 5.0285667200 5.8064886989 26.3282995585  
Ti 5.0285667200 5.8064886989 22.3798017956   0 0 0
Ti 2.5142833600 7.2581108736 30.9035883718  
Ti 2.5142833600 7.2581108736 26.9550906089  
Ni 2.5142833600 4.3548665241 24.5752888133   0 0 0
Ni 2.5142833600 4.3548665241 28.7081013540  
Ni 5.0285667200 5.8064886989 29.1505776267  
Ni 5.0285667200 5.8064886989 33.2833901674  
Ni 2.5142833600 7.2581108736 20.0000000000   0 0 0
Ni 2.5142833600 7.2581108736 24.1328125407   0 0 0
O 1.7918965873 5.7213803956 30.1092048581  
O 5.7509534927 7.3432191768 23.1741853092   0 0 0
O 4.2063243791 7.4008708160 30.1092048581  
O 3.3365257009 5.6637287564 23.1741853092   0 0 0
O 1.5446291137 8.6520814091 30.1092048581  
O 5.9982209663 4.4125181633 23.1741853092   0 0 0
O 4.3061799473 7.1730025703 20.9586272315   0 0 0
O 5.7509534927 4.4399748274 27.7494741226  
O 4.2063243791 4.4976264666 20.9586272315   0 0 0
O 5.8508090609 7.1153509311 27.7494741226  
O 6.5731958337 5.7488370597 20.9586272315   0 0 0
O 3.4839376063 5.8641403380 27.7494741226  
O 1.7918965873 8.6246247450 25.5339160448   0 0 0
O 3.2366701327 5.8915970021 32.3247629359  
O 1.6920410191 5.9492486413 25.5339160448   0 0 0
O 3.3365257009 8.5669731058 32.3247629359  
O 4.0589124737 7.2004592344 25.5339160448   0 0 0
O 0.9696542463 7.3157625128 32.3247629359  

