&CONTROL
   calculation      = 'relax'
   restart_mode     = 'from_scratch'
   tprnfor          = .true.
   etot_conv_thr    = 1e-05
   forc_conv_thr    = 0.0001
/
&SYSTEM
   ecutwfc          = 60
   ecutrho          = 480
   occupations      = 'smearing'
   degauss          = 0.01
   smearing         = 'cold'
   input_dft        = 'rpbe'
   vdw_corr         = 'dft-d3'
   ntyp             = 3
   nat              = 58
   ibrav            = 0
/
&ELECTRONS
   conv_thr         = 1e-08
   mixing_mode      = 'local-TF'
   mixing_beta      = 0.35
   diagonalization  = 'david'
   startingwfc      = 'random'
/
&IONS
   ion_dynamics     = 'bfgs'
   bfgs_ndim        = 6
/
&CELL
/
&FCP
/
&RISM
/
ATOMIC_SPECIES
Ti 47.867 Ti.pz-vbc.UPF
Ni 58.6934 Ni.pz-vbc.UPF
O 15.999 O.pz-vbc.UPF

K_POINTS gamma

CELL_PARAMETERS angstrom
5.02856672000000 0.00000000000000 0.00000000000000
-2.51428336000000 4.35486652414499 0.00000000000000
0.00000000000000 0.00000000000000 65.23617480225491

ATOMIC_POSITIONS angstrom
Ti 0.0000000000 0.0000000000 28.3561941130   0 0 0
Ti 2.5142833600 1.4516221747 23.1541142492   0 0 0
Ti 0.0000000000 2.9032443494 27.7294030626   0 0 0
Ti 0.0000000000 2.9032443494 23.7809052997   0 0 0
Ti 0.0000000000 0.0000000000 32.3046918759  
Ti 0.0000000000 0.0000000000 42.0820605530  
Ti 2.5142833600 1.4516221747 36.8799806892  
Ti 2.5142833600 1.4516221747 32.9314829263  
Ti 0.0000000000 2.9032443494 41.4552695026  
Ti 0.0000000000 2.9032443494 37.5067717397  
Ni 0.0000000000 0.0000000000 21.4011035041   0 0 0
Ni 0.0000000000 0.0000000000 25.5339160448   0 0 0
Ni 2.5142833600 1.4516221747 25.9763923174   0 0 0
Ni 2.5142833600 1.4516221747 30.1092048581  
Ni 0.0000000000 2.9032443494 30.5516811308  
Ni 0.0000000000 2.9032443494 20.9586272315   0 0 0
Ni 0.0000000000 0.0000000000 35.1269699441  
Ni 0.0000000000 0.0000000000 39.2597824848  
Ni 2.5142833600 1.4516221747 39.7022587574  
Ni 2.5142833600 1.4516221747 43.8350712981  
Ni 0.0000000000 2.9032443494 44.2775475708  
Ni 0.0000000000 2.9032443494 34.6844936715  
O -0.7223867727 1.3665138715 26.9350195489   0 0 0
O 3.2366701327 2.9883526527 20.0000000000   0 0 0
O 1.6920410191 3.0460042919 26.9350195489   0 0 0
O 0.8222423409 1.3088622323 20.0000000000   0 0 0
O -0.9696542463 4.2972148850 26.9350195489   0 0 0
O 3.4839376063 0.0576516392 20.0000000000   0 0 0
O 1.7918965873 2.8181360462 31.5103083623  
O 3.2366701327 0.0851083033 24.5752888133   0 0 0
O 1.6920410191 0.1427599425 31.5103083623  
O 3.3365257009 2.7604844070 24.5752888133   0 0 0
O 4.0589124737 1.3939705355 31.5103083623  
O 0.9696542463 1.5092738139 24.5752888133   0 0 0
O -0.7223867727 4.2697582209 22.3597307356   0 0 0
O 0.7223867727 1.5367304780 29.1505776267   0 0 0
O -0.8222423409 1.5943821172 22.3597307356   0 0 0
O 0.8222423409 4.2121065817 29.1505776267   0 0 0
O 1.5446291137 2.8455927102 22.3597307356   0 0 0
O -1.5446291137 2.9608959886 29.1505776267   0 0 0
O -0.7223867727 1.3665138715 40.6608859889  
O 3.2366701327 2.9883526527 33.7258664400  
O 1.6920410191 3.0460042919 40.6608859889  
O 0.8222423409 1.3088622323 33.7258664400  
O -0.9696542463 4.2972148850 40.6608859889  
O 3.4839376063 0.0576516392 33.7258664400  
O 1.7918965873 2.8181360462 45.2361748023  
O 3.2366701327 0.0851083033 38.3011552533  
O 1.6920410191 0.1427599425 45.2361748023  
O 3.3365257009 2.7604844070 38.3011552533  
O 4.0589124737 1.3939705355 45.2361748023  
O 0.9696542463 1.5092738139 38.3011552533  
O -0.7223867727 4.2697582209 36.0855971756  
O 0.7223867727 1.5367304780 42.8764440667  
O -0.8222423409 1.5943821172 36.0855971756  
O 0.8222423409 4.2121065817 42.8764440667  
O 1.5446291137 2.8455927102 36.0855971756  
O -1.5446291137 2.9608959886 42.8764440667  

