&CONTROL
   calculation      = 'relax'
   restart_mode     = 'from_scratch'
   tprnfor          = .true.
   etot_conv_thr    = 1e-05
   forc_conv_thr    = 0.0001
/
&SYSTEM
   ecutwfc          = 60
   ecutrho          = 480
   occupations      = 'smearing'
   degauss          = 0.01
   smearing         = 'cold'
   input_dft        = 'rpbe'
   vdw_corr         = 'dft-d3'
   ntyp             = 3
   nat              = 30
   ibrav            = 0
/
&ELECTRONS
   conv_thr         = 1e-08
   mixing_mode      = 'local-TF'
   mixing_beta      = 0.35
   diagonalization  = 'david'
   startingwfc      = 'random'
/
&IONS
   ion_dynamics     = 'bfgs'
   bfgs_ndim        = 6
/
&CELL
/
&FCP
/
&RISM
/
ATOMIC_SPECIES
Ti 47.867 Ti.pz-vbc.UPF
Ni 58.6934 Ni.pz-vbc.UPF
O 15.999 O.pz-vbc.UPF

K_POINTS gamma

CELL_PARAMETERS angstrom
5.02856672000000 0.00000000000000 0.00000000000000
-2.51428336000000 4.35486652414499 0.00000000000000
0.00000000000000 0.00000000000000 13.72586644000000

ATOMIC_POSITIONS angstrom
Ti 0.0000000000 0.0000000000 1.9742488814  
Ti 0.0000000000 0.0000000000 11.7516175586  
Ti 2.5142833600 1.4516221747 6.5495376948  
Ti 2.5142833600 1.4516221747 2.6010399319  
Ti 0.0000000000 2.9032443494 11.1248265081  
Ti 0.0000000000 2.9032443494 7.1763287452  
Ni 0.0000000000 0.0000000000 4.7965269497  
Ni 0.0000000000 0.0000000000 8.9293394903  
Ni 2.5142833600 1.4516221747 9.3718157630  
Ni 2.5142833600 1.4516221747 13.5046283037  
Ni 0.0000000000 2.9032443494 0.2212381363  
Ni 0.0000000000 2.9032443494 4.3540506770  
O -0.7223867727 1.3665138715 10.3304429945  
O 3.2366701327 2.9883526527 3.3954234455  
O 1.6920410191 3.0460042919 10.3304429945  
O 0.8222423409 1.3088622323 3.3954234455  
O -0.9696542463 4.2972148850 10.3304429945  
O 3.4839376063 0.0576516392 3.3954234455  
O 1.7918965873 2.8181360462 1.1798653678  
O 3.2366701327 0.0851083033 7.9707122589  
O 1.6920410191 0.1427599425 1.1798653678  
O 3.3365257009 2.7604844070 7.9707122589  
O 4.0589124737 1.3939705355 1.1798653678  
O 0.9696542463 1.5092738139 7.9707122589  
O -0.7223867727 4.2697582209 5.7551541811  
O 0.7223867727 1.5367304780 12.5460010722  
O -0.8222423409 1.5943821172 5.7551541811  
O 0.8222423409 4.2121065817 12.5460010722  
O 1.5446291137 2.8455927102 5.7551541811  
O -1.5446291137 2.9608959886 12.5460010722  

